solution status: optimal solution found
objective value:                                    0
$_8_y                                              21 	(obj:0)
$_8_z                                              18 	(obj:0)
$_27_y                                             25 	(obj:0)
$_27_z                                             25 	(obj:0)
$_39_y                                             20 	(obj:0)
$_39_z                                             20 	(obj:0)
$_42_y                                             25 	(obj:0)
$_42_z                                             10 	(obj:0)
$_37_y                                             21 	(obj:0)
$_37_z                                             20 	(obj:0)
$_108_y                                            23 	(obj:0)
$_108_z                                            24 	(obj:0)
$_74_y                                             25 	(obj:0)
$_74_z                                             22 	(obj:0)
$_142_y                                            22 	(obj:0)
$_142_z                                            24 	(obj:0)
$_25_y                                             21 	(obj:0)
$_25_z                                             22 	(obj:0)
$_54_y                                             19 	(obj:0)
$_54_z                                             20 	(obj:0)
$_38_y                                             22 	(obj:0)
$_38_z                                             20 	(obj:0)
$_19_y                                             23 	(obj:0)
$_19_z                                             25 	(obj:0)
$_36_y                                             21 	(obj:0)
$_36_z                                             21 	(obj:0)
$_40_y                                             17 	(obj:0)
$_40_z                                             20 	(obj:0)
$_14_y                                             22 	(obj:0)
$_14_z                                             19 	(obj:0)
$_132_y                                            23 	(obj:0)
$_132_z                                            22 	(obj:0)
$_5_y                                              21 	(obj:0)
$_5_z                                              19 	(obj:0)
$_57_y                                             18 	(obj:0)
$_57_z                                             20 	(obj:0)
$_41_y                                             22 	(obj:0)
$_41_z                                             18 	(obj:0)
$_75_y                                             19 	(obj:0)
$_75_z                                             18 	(obj:0)
$_24_y                                             22 	(obj:0)
$_24_z                                             22 	(obj:0)
$_12_y                                             24 	(obj:0)
$_12_z                                             25 	(obj:0)
